Traveling Salesman Problem/TSP_generados/Aleatorio1620397565_18.tsp
NAME: Aleatorio1620397565_18.tsp
COMMENT: Randomly generated scenario
TYPE: TSP
DIMENSION: 18
EDGE_WEIGHT_TYPE: ATT
NODE_COORD_SECTION
1 23.99 0.95
2 4.76 15.66
3 2.3 14.54
4 38.4 29.28
5 36.88 14.52
6 34.77 6.39
7 41.69 16.64
8 38.65 3.0
9 3.1 19.08
10 8.43 41.63
11 10.68 46.76
12 12.56 49.63
13 23.35 31.01
14 0.66 17.47
15 32.27 33.91
16 30.05 33.52
17 1.06 4.75
18 35.69 20.86
