Traveling Salesman Problem/TSP_generados/Aleatorio1620397565_18.opt.tour
NAME: Aleatorio1620397565_18.opt.tour
COMMENT: Optimal solution for Aleatorio1620397565_18 (163.8257437350956)
TYPE: TOUR
DIMENSION: 18
TOUR_SECTION
1 8 6 5 7 18 4 15 16 13 12 11 10 9 14 2 3 17
-1
EOF
